100
68   269
76   37
49   226
9   310
94   354
99   74
34   239
41   90
68   112
25   119
90   372
96   122
17   144
26   43
24   231
22   323
30   102
66   369
42   154
28   297
7   176
86   242
12   58
90   296
91   266
71   327
25   260
17   310
52   226
56   72
60   240
68   184
7   213
41   254
55   154
92   113
8   380
21   379
20   73
51   160
59   347
67   220
19   241
88   370
77   165
12   373
76   187
62   382
25   245
7   255
58   195
100   75
4   223
29   351
56   289
5   327
35   312
85   292
20   183
49   379
98   366
98   199
55   90
55   142
61   37
70   39
19   206
7   54
80   220
30   254
14   204
28   94
30   284
30   358
66   133
19   356
59   138
73   386
69   345
33   80
35   238
17   205
71   373
83   137
5   360
52   215
10   201
30   194
100   59
39   90
57   121
62   276
71   382
24   180
9   386
28   81
80   202
91   178
10   265
61   354
4000
